<number of tasks>
89

<cycle time>
87

<task times>
1 28
2 17
3 7
4 10
5 12
6 16
7 13
8 8
9 13
10 24
11 16
12 24
13 12
14 20
15 22
16 22
17 22
18 47
19 6
20 12
21 6
22 22
23 7
24 14
25 68
26 15
27 8
28 74
29 32
30 11
31 18
32 15
33 42
34 27
35 38
36 38
37 26
38 35
39 31
40 8
41 14
42 8
43 8
44 8
45 17
46 7
47 19
48 12
49 24
50 26
51 22
52 14
53 27
54 60
55 4
56 2
57 1
58 9
59 5
60 6
61 7
62 12
63 2
64 11
65 14
66 6
67 21
68 14
69 1
70 6
71 21
72 11
73 14
74 28
75 12
76 11
77 30
78 22
79 14
80 31
81 18
82 16
83 7
84 38
85 8
86 31
87 29
88 12
89 18

<precedence relations>
1,2
2,3
3,4
4,5
4,6
4,7
4,8
4,9
5,10
6,11
7,12
8,18
9,18
10,14
11,12
12,13
13,14
14,15
14,16
15,17
16,54
17,18
18,19
18,20
19,22
20,21
20,28
21,54
22,23
23,24
24,25
25,26
25,27
25,29
26,37
27,33
28,29
29,31
30,54
31,32
32,33
33,34
34,35
35,36
35,37
36,38
37,38
38,39
39,40
39,41
39,42
39,43
40,44
41,53
42,53
43,45
44,52
45,46
46,47
47,48
47,49
49,50
50,51
51,52
52,53
53,68
53,69
53,70
53,71
54,55
55,56
56,57
57,58
57,59
57,60
57,61
57,62
57,63
57,64
57,65
57,66
58,67
59,67
60,67
61,67
62,67
63,67
64,67
65,67
66,67
67,73
68,72
69,72
70,72
71,73
72,78
72,80
73,74
74,75
74,76
75,77
76,81
77,78
78,79
79,81
80,81
81,82
81,84
81,85
82,83
83,86
84,86
85,86
86,87
87,88
87,89

<setup times forward>
1,30:1
2,30:1
3,30:1
4,5:3
4,7:3
4,9:2
4,30:1
5,6:3
5,8:3
5,9:5
5,10:5
5,30:2
6,5:3
6,7:3
6,9:2
6,10:2
6,11:3
6,30:1
7,6:3
7,8:3
7,9:5
7,10:5
7,30:2
8,5:3
8,7:3
8,9:2
8,10:2
8,11:3
8,12:3
8,13:3
8,14:2
8,15:2
8,16:1
8,17:1
8,18:1
8,30:1
9,5:5
9,6:2
9,7:5
9,8:2
9,11:5
9,12:5
9,13:5
9,16:3
9,17:3
9,18:3
9,30:3
10,6:2
10,7:5
10,8:2
10,11:5
10,12:5
10,13:5
10,30:3
11,8:3
11,9:5
11,10:5
11,30:2
12,8:3
12,9:5
12,10:5
12,30:2
13,8:3
13,9:5
13,10:5
13,14:5
13,30:2
14,8:2
14,16:3
14,30:3
15,8:2
15,16:3
15,17:3
15,30:3
16,8:1
16,9:3
16,15:3
16,25:3
16,26:4
16,27:3
16,28:1
16,29:4
16,31:4
16,32:4
16,33:3
16,34:3
16,35:5
16,36:5
16,37:2
16,38:2
16,40:1
16,41:6
16,44:6
16,46:1
16,47:1
16,48:1
16,49:1
16,50:1
16,51:6
16,52:6
16,53:6
16,54:1
16,68:5
16,69:5
16,70:5
16,71:5
16,72:5
16,80:5
17,8:1
17,9:3
19,28:1
19,54:1
19,55:1
19,56:1
19,57:1
19,58:2
19,59:2
19,60:3
19,61:2
19,62:3
19,63:2
19,64:5
19,65:1
19,66:1
20,25:3
20,26:4
20,27:3
20,28:1
21,25:3
21,26:4
21,27:3
21,28:1
21,29:4
21,31:4
21,32:4
21,33:3
21,34:3
21,35:5
21,36:5
21,37:2
21,38:2
21,40:1
21,41:6
21,44:6
21,46:1
21,47:1
21,48:1
21,49:1
21,50:1
21,51:6
21,52:6
21,53:6
21,54:1
21,68:5
21,69:5
21,70:5
21,71:5
21,72:5
21,80:5
22,28:1
22,54:1
22,55:1
22,56:1
22,57:1
22,58:2
22,59:2
22,60:3
22,61:2
22,62:3
22,63:2
22,64:5
22,65:1
22,66:1
23,28:1
23,54:1
23,55:1
23,56:1
23,57:1
23,58:2
23,59:2
23,60:3
23,61:2
23,62:3
23,63:2
23,64:5
23,65:1
23,66:1
24,25:3
24,28:1
24,54:1
24,55:1
24,56:1
24,57:1
24,58:2
24,59:2
24,60:3
24,61:2
24,62:3
24,63:2
24,64:5
24,65:1
24,66:1
25,16:3
25,20:3
25,21:3
25,26:1
25,28:2
25,29:1
25,30:3
25,54:4
25,55:4
25,56:4
25,57:4
25,58:1
25,59:1
25,61:1
25,63:1
25,64:2
25,65:4
25,66:4
25,67:3
26,16:4
26,20:4
26,21:4
26,27:1
26,28:3
26,30:4
26,33:1
26,34:1
26,35:1
26,36:1
26,37:2
26,54:5
26,55:5
26,56:5
26,57:5
26,58:2
26,59:2
26,60:1
26,61:2
26,62:1
26,63:2
26,64:1
26,65:5
26,66:5
26,67:4
27,16:3
27,20:3
27,21:3
27,26:1
27,28:2
27,29:1
27,30:3
27,31:1
27,32:1
27,54:4
27,55:4
27,56:4
27,57:4
27,58:1
27,59:1
27,61:1
27,63:1
27,64:2
27,65:4
27,66:4
27,67:3
28,16:1
28,19:1
28,21:1
28,22:1
28,23:1
28,24:1
28,25:2
28,26:3
28,27:2
28,29:3
28,30:1
28,54:2
28,55:2
28,56:2
28,57:2
28,58:1
28,59:1
28,60:2
28,61:1
28,62:2
28,63:1
28,64:4
28,65:2
28,66:2
28,67:1
29,16:4
29,21:4
29,27:1
29,30:4
29,54:5
29,55:5
29,56:5
29,57:5
29,58:2
29,59:2
29,60:1
29,61:2
29,62:1
29,63:2
29,64:1
29,65:5
29,66:5
29,67:4
30,1:1
30,2:1
30,3:1
30,4:1
30,5:2
30,6:1
30,7:2
30,8:1
30,9:3
30,10:3
30,11:2
30,12:2
30,13:2
30,14:3
30,15:3
30,25:3
30,26:4
30,27:3
30,28:1
30,29:4
30,31:4
30,32:4
30,33:3
30,34:3
30,35:5
30,36:5
30,37:2
30,38:2
30,40:1
30,41:6
30,44:6
30,46:1
30,47:1
30,48:1
30,49:1
30,50:1
30,51:6
30,52:6
30,53:6
30,54:1
30,68:5
30,69:5
30,70:5
30,71:5
30,72:5
30,80:5
31,16:4
31,21:4
31,27:1
31,30:4
31,54:5
31,55:5
31,56:5
31,57:5
31,58:2
31,59:2
31,60:1
31,61:2
31,62:1
31,63:2
31,64:1
31,65:5
31,66:5
31,67:4
32,16:4
32,21:4
32,27:1
32,30:4
32,33:1
32,54:5
32,55:5
32,56:5
32,57:5
32,58:2
32,59:2
32,60:1
32,61:2
32,62:1
32,63:2
32,64:1
32,65:5
32,66:5
32,67:4
33,16:3
33,21:3
33,26:1
33,30:3
33,54:4
33,55:4
33,56:4
33,57:4
33,58:1
33,59:1
33,61:1
33,63:1
33,64:2
33,65:4
33,66:4
33,67:3
34,16:3
34,21:3
34,26:1
34,30:3
34,35:2
34,54:4
34,55:4
34,56:4
34,57:4
34,58:1
34,59:1
34,61:1
34,63:1
34,64:2
34,65:4
34,66:4
34,67:3
35,16:5
35,21:5
35,26:1
35,30:5
35,37:3
35,54:6
35,55:6
35,56:6
35,57:6
35,58:3
35,59:3
35,60:2
35,61:3
35,62:2
35,63:3
35,65:6
35,66:6
35,67:5
36,16:5
36,21:5
36,26:1
36,30:5
36,37:3
36,38:3
36,54:6
36,55:6
36,56:6
36,57:6
36,58:3
36,59:3
36,60:2
36,61:3
36,62:2
36,63:3
36,65:6
36,66:6
36,67:5
37,16:2
37,21:2
37,30:2
37,36:3
37,54:3
37,55:3
37,56:3
37,57:3
37,60:1
37,62:1
37,64:3
37,65:3
37,66:3
37,67:2
38,16:2
38,21:2
38,30:2
38,39:2
38,54:3
38,55:3
38,56:3
38,57:3
38,60:1
38,62:1
38,64:3
38,65:3
38,66:3
38,67:2
39,40:1
39,41:6
39,54:1
39,55:1
39,56:1
39,57:1
39,58:2
39,59:2
39,60:3
39,61:2
39,62:3
39,63:2
39,64:5
39,65:1
39,66:1
40,16:1
40,21:1
40,30:1
40,41:7
40,42:1
40,43:1
40,44:7
40,45:1
40,51:7
40,58:3
40,59:3
40,60:4
40,61:3
40,62:4
40,63:3
40,64:6
40,67:1
41,16:6
41,21:6
41,30:6
41,40:7
41,42:6
41,43:6
41,45:6
41,46:7
41,47:7
41,48:7
41,49:7
41,50:7
41,54:7
41,55:7
41,56:7
41,57:7
41,58:4
41,59:4
41,60:3
41,61:4
41,62:3
41,63:4
41,64:1
41,65:7
41,66:7
41,67:6
42,40:1
42,41:6
42,44:6
42,46:1
42,47:1
42,48:1
42,49:1
42,50:1
42,51:6
42,52:6
42,53:6
42,54:1
42,55:1
42,56:1
42,57:1
42,58:2
42,59:2
42,60:3
42,61:2
42,62:3
42,63:2
42,64:5
42,65:1
42,66:1
43,40:1
43,41:6
43,44:6
43,54:1
43,55:1
43,56:1
43,57:1
43,58:2
43,59:2
43,60:3
43,61:2
43,62:3
43,63:2
43,64:5
43,65:1
43,66:1
44,16:6
44,21:6
44,30:6
44,42:6
44,43:6
44,45:6
44,46:7
44,47:7
44,48:7
44,49:7
44,50:7
44,54:7
44,55:7
44,56:7
44,57:7
44,58:4
44,59:4
44,60:3
44,61:4
44,62:3
44,63:4
44,64:1
44,65:7
44,66:7
44,67:6
45,40:1
45,41:6
45,44:6
45,46:1
45,54:1
45,55:1
45,56:1
45,57:1
45,58:2
45,59:2
45,60:3
45,61:2
45,62:3
45,63:2
45,64:5
45,65:1
45,66:1
46,16:1
46,21:1
46,30:1
46,41:7
46,42:1
46,44:7
46,58:3
46,59:3
46,60:4
46,61:3
46,62:4
46,63:3
46,64:6
46,67:1
47,16:1
47,21:1
47,30:1
47,41:7
47,42:1
47,44:7
47,58:3
47,59:3
47,60:4
47,61:3
47,62:4
47,63:3
47,64:6
47,67:1
48,16:1
48,21:1
48,30:1
48,41:7
48,42:1
48,44:7
48,51:7
48,52:7
48,53:7
48,58:3
48,59:3
48,60:4
48,61:3
48,62:4
48,63:3
48,64:6
48,67:1
48,68:6
48,69:6
48,70:6
48,71:6
48,72:6
48,73:1
48,74:1
48,75:1
48,76:3
48,77:1
48,78:3
48,79:3
48,80:6
48,81:3
48,82:3
48,83:1
48,84:1
48,85:1
48,86:1
49,16:1
49,21:1
49,30:1
49,41:7
49,42:1
49,44:7
49,58:3
49,59:3
49,60:4
49,61:3
49,62:4
49,63:3
49,64:6
49,67:1
50,16:1
50,21:1
50,30:1
50,41:7
50,42:1
50,44:7
50,51:7
50,58:3
50,59:3
50,60:4
50,61:3
50,62:4
50,63:3
50,64:6
50,67:1
51,16:6
51,21:6
51,30:6
51,40:7
51,42:6
51,48:7
51,54:7
51,55:7
51,56:7
51,57:7
51,58:4
51,59:4
51,60:3
51,61:4
51,62:3
51,63:4
51,64:1
51,65:7
51,66:7
51,67:6
52,16:6
52,21:6
52,30:6
52,42:6
52,48:7
52,54:7
52,55:7
52,56:7
52,57:7
52,58:4
52,59:4
52,60:3
52,61:4
52,62:3
52,63:4
52,64:1
52,65:7
52,66:7
52,67:6
53,16:6
53,21:6
53,30:6
53,48:7
53,54:7
53,55:7
53,56:7
53,57:7
53,58:4
53,59:4
53,60:3
53,61:4
53,62:3
53,63:4
53,64:1
53,65:7
53,66:7
53,67:6
53,68:1
53,69:1
53,70:1
53,71:1
54,19:1
54,22:1
54,23:1
54,24:1
54,25:4
54,26:5
54,27:4
54,28:2
54,29:5
54,31:5
54,32:5
54,33:4
54,34:4
54,35:6
54,36:6
54,37:3
54,38:3
54,39:1
54,41:7
54,42:1
54,43:1
54,44:7
54,45:1
54,51:7
54,52:7
54,53:7
54,68:6
54,69:6
54,70:6
54,71:6
54,72:6
54,80:6
55,19:1
55,22:1
55,23:1
55,24:1
55,25:4
55,26:5
55,27:4
55,28:2
55,29:5
55,31:5
55,32:5
55,33:4
55,34:4
55,35:6
55,36:6
55,37:3
55,38:3
55,39:1
55,41:7
55,42:1
55,43:1
55,44:7
55,45:1
55,51:7
55,52:7
55,53:7
55,68:6
55,69:6
55,70:6
55,71:6
55,72:6
55,80:6
56,19:1
56,22:1
56,23:1
56,24:1
56,25:4
56,26:5
56,27:4
56,28:2
56,29:5
56,31:5
56,32:5
56,33:4
56,34:4
56,35:6
56,36:6
56,37:3
56,38:3
56,39:1
56,41:7
56,42:1
56,43:1
56,44:7
56,45:1
56,51:7
56,52:7
56,53:7
56,68:6
56,69:6
56,70:6
56,71:6
56,72:6
56,80:6
57,19:1
57,22:1
57,23:1
57,24:1
57,25:4
57,26:5
57,27:4
57,28:2
57,29:5
57,31:5
57,32:5
57,33:4
57,34:4
57,35:6
57,36:6
57,37:3
57,38:3
57,39:1
57,41:7
57,42:1
57,43:1
57,44:7
57,45:1
57,51:7
57,52:7
57,53:7
57,58:3
57,59:3
57,60:4
57,61:3
57,62:4
57,63:3
57,64:6
57,68:6
57,69:6
57,70:6
57,71:6
57,72:6
57,80:6
58,19:2
58,22:2
58,23:2
58,24:2
58,25:1
58,26:2
58,27:1
58,28:1
58,29:2
58,31:2
58,32:2
58,33:1
58,34:1
58,35:3
58,36:3
58,39:2
58,40:3
58,41:4
58,42:2
58,43:2
58,44:4
58,45:2
58,46:3
58,47:3
58,48:3
58,49:3
58,50:3
58,51:4
58,52:4
58,53:4
58,60:1
58,62:1
58,64:3
58,65:3
58,66:3
58,67:2
58,68:3
58,69:3
58,70:3
58,71:3
58,72:3
58,80:3
59,19:2
59,22:2
59,23:2
59,24:2
59,25:1
59,26:2
59,27:1
59,28:1
59,29:2
59,31:2
59,32:2
59,33:1
59,34:1
59,35:3
59,36:3
59,39:2
59,40:3
59,41:4
59,42:2
59,43:2
59,44:4
59,45:2
59,46:3
59,47:3
59,48:3
59,49:3
59,50:3
59,51:4
59,52:4
59,53:4
59,60:1
59,62:1
59,64:3
59,65:3
59,66:3
59,67:2
59,68:3
59,69:3
59,70:3
59,71:3
59,72:3
59,80:3
60,19:3
60,22:3
60,23:3
60,24:3
60,26:1
60,28:2
60,29:1
60,31:1
60,32:1
60,35:2
60,36:2
60,37:1
60,38:1
60,39:3
60,40:4
60,41:3
60,42:3
60,43:3
60,44:3
60,45:3
60,46:4
60,47:4
60,48:4
60,49:4
60,50:4
60,51:3
60,52:3
60,53:3
60,58:1
60,59:1
60,61:1
60,63:1
60,64:2
60,65:4
60,66:4
60,67:3
60,68:2
60,69:2
60,70:2
60,71:2
60,72:2
60,80:2
61,19:2
61,22:2
61,23:2
61,24:2
61,25:1
61,26:2
61,27:1
61,28:1
61,29:2
61,31:2
61,32:2
61,33:1
61,34:1
61,35:3
61,36:3
61,39:2
61,40:3
61,41:4
61,42:2
61,43:2
61,44:4
61,45:2
61,46:3
61,47:3
61,48:3
61,49:3
61,50:3
61,51:4
61,52:4
61,53:4
61,60:1
61,62:1
61,64:3
61,65:3
61,66:3
61,67:2
61,68:3
61,69:3
61,70:3
61,71:3
61,72:3
61,80:3
62,19:3
62,22:3
62,23:3
62,24:3
62,26:1
62,28:2
62,29:1
62,31:1
62,32:1
62,35:2
62,36:2
62,37:1
62,38:1
62,39:3
62,40:4
62,41:3
62,42:3
62,43:3
62,44:3
62,45:3
62,46:4
62,47:4
62,48:4
62,49:4
62,50:4
62,51:3
62,52:3
62,53:3
62,58:1
62,59:1
62,61:1
62,63:1
62,64:2
62,65:4
62,66:4
62,67:3
62,68:2
62,69:2
62,70:2
62,71:2
62,72:2
62,80:2
63,19:2
63,22:2
63,23:2
63,24:2
63,25:1
63,26:2
63,27:1
63,28:1
63,29:2
63,31:2
63,32:2
63,33:1
63,34:1
63,35:3
63,36:3
63,39:2
63,40:3
63,41:4
63,42:2
63,43:2
63,44:4
63,45:2
63,46:3
63,47:3
63,48:3
63,49:3
63,50:3
63,51:4
63,52:4
63,53:4
63,60:1
63,62:1
63,64:3
63,65:3
63,66:3
63,67:2
63,68:3
63,69:3
63,70:3
63,71:3
63,72:3
63,80:3
64,19:5
64,22:5
64,23:5
64,24:5
64,25:2
64,26:1
64,27:2
64,28:4
64,29:1
64,31:1
64,32:1
64,33:2
64,34:2
64,37:3
64,38:3
64,39:5
64,40:6
64,41:1
64,42:5
64,43:5
64,44:1
64,45:5
64,46:6
64,47:6
64,48:6
64,49:6
64,50:6
64,51:1
64,52:1
64,53:1
64,58:3
64,59:3
64,60:2
64,61:3
64,62:2
64,63:3
64,65:6
64,66:6
64,67:5
65,19:1
65,22:1
65,23:1
65,24:1
65,25:4
65,26:5
65,27:4
65,28:2
65,29:5
65,31:5
65,32:5
65,33:4
65,34:4
65,35:6
65,36:6
65,37:3
65,38:3
65,39:1
65,41:7
65,42:1
65,43:1
65,44:7
65,45:1
65,51:7
65,52:7
65,53:7
65,58:3
65,59:3
65,60:4
65,61:3
65,62:4
65,63:3
65,64:6
65,67:1
65,68:6
65,69:6
65,70:6
65,71:6
65,72:6
65,80:6
66,19:1
66,22:1
66,23:1
66,24:1
66,25:4
66,26:5
66,27:4
66,28:2
66,29:5
66,31:5
66,32:5
66,33:4
66,34:4
66,35:6
66,36:6
66,37:3
66,38:3
66,39:1
66,41:7
66,42:1
66,43:1
66,44:7
66,45:1
66,51:7
66,52:7
66,53:7
66,58:3
66,59:3
66,60:4
66,61:3
66,62:4
66,63:3
66,64:6
66,67:1
66,68:6
66,69:6
66,70:6
66,71:6
66,72:6
66,80:6
67,25:3
67,26:4
67,27:3
67,28:1
67,29:4
67,31:4
67,32:4
67,33:3
67,34:3
67,35:5
67,36:5
67,37:2
67,38:2
67,40:1
67,41:6
67,44:6
67,46:1
67,47:1
67,48:1
67,49:1
67,50:1
67,51:6
67,52:6
67,53:6
67,68:5
67,69:5
67,70:5
67,71:5
67,72:5
67,73:2
67,80:5
68,16:5
68,21:5
68,30:5
68,48:6
68,54:6
68,55:6
68,56:6
68,57:6
68,58:3
68,59:3
68,60:2
68,61:3
68,62:2
68,63:3
68,65:6
68,66:6
68,67:5
68,73:7
68,74:7
68,75:7
68,76:3
68,77:7
69,16:5
69,21:5
69,30:5
69,48:6
69,54:6
69,55:6
69,56:6
69,57:6
69,58:3
69,59:3
69,60:2
69,61:3
69,62:2
69,63:3
69,65:6
69,66:6
69,67:5
69,73:7
69,74:7
69,75:7
69,76:3
69,77:7
70,16:5
70,21:5
70,30:5
70,48:6
70,54:6
70,55:6
70,56:6
70,57:6
70,58:3
70,59:3
70,60:2
70,61:3
70,62:2
70,63:3
70,65:6
70,66:6
70,67:5
70,73:7
70,74:7
70,75:7
70,76:3
70,77:7
71,16:5
71,21:5
71,30:5
71,48:6
71,54:6
71,55:6
71,56:6
71,57:6
71,58:3
71,59:3
71,60:2
71,61:3
71,62:2
71,63:3
71,65:6
71,66:6
71,67:5
71,73:7
72,16:5
72,21:5
72,30:5
72,48:6
72,54:6
72,55:6
72,56:6
72,57:6
72,58:3
72,59:3
72,60:2
72,61:3
72,62:2
72,63:3
72,65:6
72,66:6
72,67:5
72,73:7
72,74:7
72,75:7
72,76:3
72,77:7
72,78:3
73,48:1
73,68:7
73,69:7
73,70:7
73,72:7
73,80:7
74,48:1
74,68:7
74,69:7
74,70:7
74,72:7
74,76:4
74,80:7
75,48:1
75,68:7
75,69:7
75,70:7
75,72:7
75,76:4
75,80:7
76,48:3
76,68:3
76,69:3
76,70:3
76,72:3
76,75:4
76,77:4
76,80:3
77,48:1
77,68:7
77,69:7
77,70:7
77,72:7
77,76:4
77,78:4
77,80:7
78,48:3
78,80:3
79,48:3
79,80:3
80,16:5
80,21:5
80,30:5
80,48:6
80,54:6
80,55:6
80,56:6
80,57:6
80,58:3
80,59:3
80,60:2
80,61:3
80,62:2
80,63:3
80,65:6
80,66:6
80,67:5
80,73:7
80,74:7
80,75:7
80,76:3
80,77:7
80,78:3
80,79:3
80,81:3
81,48:3
81,84:2
81,85:2
82,48:3
82,83:2
82,84:2
82,85:2
83,48:1
84,48:1
84,82:2
85,48:1
85,82:2
86,48:1
86,87:1

<setup times backward>
5,1:3
5,2:3
5,3:3
5,4:3
5,6:3
5,8:3
5,9:5
5,30:2
6,9:2
6,10:2
7,1:3
7,2:3
7,3:3
7,4:3
7,6:3
7,8:3
7,9:5
7,10:5
7,30:2
8,9:2
8,10:2
8,14:2
8,15:2
11,1:3
11,2:3
11,3:3
11,4:3
11,6:3
11,8:3
11,9:5
11,10:5
11,30:2
12,1:3
12,2:3
12,3:3
12,4:3
12,6:3
12,8:3
12,9:5
12,10:5
12,30:2
13,1:3
13,2:3
13,3:3
13,4:3
13,6:3
13,8:3
13,9:5
13,10:5
13,30:2
16,1:1
16,2:1
16,3:1
16,4:1
16,6:1
16,8:1
16,9:3
16,10:3
16,14:3
16,15:3
16,25:3
16,26:4
16,27:3
16,28:1
16,29:4
16,31:4
16,32:4
16,33:3
16,34:3
16,35:5
16,36:5
16,37:2
16,38:2
16,41:6
16,44:6
16,51:6
16,52:6
16,53:6
16,68:5
16,69:5
16,70:5
16,71:5
16,72:5
16,80:5
17,1:1
17,2:1
17,3:1
17,4:1
17,6:1
17,8:1
17,9:3
17,10:3
17,14:3
17,15:3
18,1:1
18,2:1
18,3:1
18,4:1
18,6:1
18,8:1
18,9:3
18,10:3
18,14:3
18,15:3
19,1:1
19,2:1
19,3:1
19,4:1
19,6:1
19,8:1
19,9:3
19,10:3
19,14:3
19,15:3
19,28:1
19,58:2
19,59:2
19,60:3
19,61:2
19,62:3
19,63:2
19,64:5
20,1:1
20,2:1
20,3:1
20,4:1
20,6:1
20,8:1
20,9:3
20,10:3
20,14:3
20,15:3
20,25:3
20,26:4
20,27:3
21,1:1
21,2:1
21,3:1
21,4:1
21,6:1
21,8:1
21,9:3
21,10:3
21,14:3
21,15:3
21,25:3
21,26:4
21,27:3
21,28:1
21,29:4
21,31:4
21,32:4
21,33:3
21,34:3
21,35:5
21,36:5
21,37:2
21,38:2
21,41:6
21,44:6
21,51:6
21,52:6
21,53:6
21,68:5
21,69:5
21,70:5
21,71:5
21,72:5
21,80:5
22,1:1
22,2:1
22,3:1
22,4:1
22,6:1
22,8:1
22,9:3
22,10:3
22,14:3
22,15:3
22,28:1
22,58:2
22,59:2
22,60:3
22,61:2
22,62:3
22,63:2
22,64:5
23,1:1
23,2:1
23,3:1
23,4:1
23,6:1
23,8:1
23,9:3
23,10:3
23,14:3
23,15:3
23,28:1
23,58:2
23,59:2
23,60:3
23,61:2
23,62:3
23,63:2
23,64:5
24,1:1
24,2:1
24,3:1
24,4:1
24,6:1
24,8:1
24,9:3
24,10:3
24,14:3
24,15:3
24,28:1
24,58:2
24,59:2
24,60:3
24,61:2
24,62:3
24,63:2
24,64:5
25,64:2
26,35:1
26,36:1
26,64:1
27,26:1
27,29:1
27,31:1
27,32:1
27,64:2
28,9:2
28,10:2
28,14:2
28,15:2
28,25:2
28,26:3
28,27:2
28,58:1
28,59:1
28,60:2
28,61:1
28,62:2
28,63:1
28,64:4
29,64:1
30,1:1
30,2:1
30,3:1
30,4:1
30,6:1
30,8:1
30,9:3
30,10:3
30,14:3
30,15:3
30,25:3
30,26:4
30,27:3
30,28:1
30,29:4
30,31:4
30,32:4
30,33:3
30,34:3
30,35:5
30,36:5
30,37:2
30,38:2
30,41:6
30,44:6
30,51:6
30,52:6
30,53:6
30,68:5
30,69:5
30,70:5
30,71:5
30,72:5
30,80:5
31,64:1
32,64:1
33,26:1
33,29:1
33,31:1
33,32:1
33,64:2
34,26:1
34,29:1
34,31:1
34,32:1
34,64:2
37,9:1
37,10:1
37,14:1
37,15:1
37,25:1
37,26:2
37,27:1
37,29:2
37,31:2
37,32:2
37,33:1
37,34:1
37,35:3
37,36:3
37,60:1
37,62:1
37,64:3
38,9:1
38,10:1
38,14:1
38,15:1
38,25:1
38,26:2
38,27:1
38,29:2
38,31:2
38,32:2
38,33:1
38,34:1
38,35:3
38,36:3
38,60:1
38,62:1
38,64:3
39,1:1
39,2:1
39,3:1
39,4:1
39,6:1
39,8:1
39,9:3
39,10:3
39,14:3
39,15:3
39,25:3
39,26:4
39,27:3
39,28:1
39,29:4
39,31:4
39,32:4
39,33:3
39,34:3
39,35:5
39,36:5
39,37:2
39,38:2
39,58:2
39,59:2
39,60:3
39,61:2
39,62:3
39,63:2
39,64:5
40,1:2
40,2:2
40,3:2
40,4:2
40,6:2
40,8:2
40,9:4
40,10:4
40,14:4
40,15:4
40,16:1
40,17:1
40,18:1
40,19:1
40,20:1
40,21:1
40,22:1
40,23:1
40,24:1
40,25:4
40,26:5
40,27:4
40,28:2
40,29:5
40,30:1
40,31:5
40,32:5
40,33:4
40,34:4
40,35:6
40,36:6
40,37:3
40,38:3
40,39:1
40,41:7
40,42:1
40,43:1
40,45:1
40,51:7
40,58:3
40,59:3
40,60:4
40,61:3
40,62:4
40,63:3
40,64:6
40,67:1
42,1:1
42,2:1
42,3:1
42,4:1
42,6:1
42,8:1
42,9:3
42,10:3
42,14:3
42,15:3
42,25:3
42,26:4
42,27:3
42,28:1
42,29:4
42,31:4
42,32:4
42,33:3
42,34:3
42,35:5
42,36:5
42,37:2
42,38:2
42,41:6
42,44:6
42,51:6
42,52:6
42,58:2
42,59:2
42,60:3
42,61:2
42,62:3
42,63:2
42,64:5
43,1:1
43,2:1
43,3:1
43,4:1
43,6:1
43,8:1
43,9:3
43,10:3
43,14:3
43,15:3
43,25:3
43,26:4
43,27:3
43,28:1
43,29:4
43,31:4
43,32:4
43,33:3
43,34:3
43,35:5
43,36:5
43,37:2
43,38:2
43,41:6
43,44:6
43,58:2
43,59:2
43,60:3
43,61:2
43,62:3
43,63:2
43,64:5
45,1:1
45,2:1
45,3:1
45,4:1
45,6:1
45,8:1
45,9:3
45,10:3
45,14:3
45,15:3
45,25:3
45,26:4
45,27:3
45,28:1
45,29:4
45,31:4
45,32:4
45,33:3
45,34:3
45,35:5
45,36:5
45,37:2
45,38:2
45,41:6
45,44:6
45,58:2
45,59:2
45,60:3
45,61:2
45,62:3
45,63:2
45,64:5
46,1:2
46,2:2
46,3:2
46,4:2
46,6:2
46,8:2
46,9:4
46,10:4
46,14:4
46,15:4
46,16:1
46,17:1
46,18:1
46,19:1
46,20:1
46,21:1
46,22:1
46,23:1
46,24:1
46,25:4
46,26:5
46,27:4
46,28:2
46,29:5
46,30:1
46,31:5
46,32:5
46,33:4
46,34:4
46,35:6
46,36:6
46,37:3
46,38:3
46,39:1
46,41:7
46,42:1
46,43:1
46,44:7
46,45:1
46,58:3
46,59:3
46,60:4
46,61:3
46,62:4
46,63:3
46,64:6
46,67:1
47,1:2
47,2:2
47,3:2
47,4:2
47,6:2
47,8:2
47,9:4
47,10:4
47,14:4
47,15:4
47,16:1
47,17:1
47,18:1
47,19:1
47,20:1
47,21:1
47,22:1
47,23:1
47,24:1
47,25:4
47,26:5
47,27:4
47,28:2
47,29:5
47,30:1
47,31:5
47,32:5
47,33:4
47,34:4
47,35:6
47,36:6
47,37:3
47,38:3
47,39:1
47,41:7
47,42:1
47,43:1
47,44:7
47,45:1
47,58:3
47,59:3
47,60:4
47,61:3
47,62:4
47,63:3
47,64:6
47,67:1
48,1:2
48,2:2
48,3:2
48,4:2
48,6:2
48,8:2
48,9:4
48,10:4
48,14:4
48,15:4
48,16:1
48,17:1
48,18:1
48,19:1
48,20:1
48,21:1
48,22:1
48,23:1
48,24:1
48,25:4
48,26:5
48,27:4
48,28:2
48,29:5
48,30:1
48,31:5
48,32:5
48,33:4
48,34:4
48,35:6
48,36:6
48,37:3
48,38:3
48,39:1
48,41:7
48,42:1
48,43:1
48,44:7
48,45:1
48,51:7
48,52:7
48,53:7
48,58:3
48,59:3
48,60:4
48,61:3
48,62:4
48,63:3
48,64:6
48,67:1
48,68:6
48,69:6
48,70:6
48,71:6
48,72:6
48,76:3
48,78:3
48,79:3
48,80:6
48,81:3
48,82:3
48,83:1
48,84:1
48,85:1
48,86:1
49,1:2
49,2:2
49,3:2
49,4:2
49,6:2
49,8:2
49,9:4
49,10:4
49,14:4
49,15:4
49,16:1
49,17:1
49,18:1
49,19:1
49,20:1
49,21:1
49,22:1
49,23:1
49,24:1
49,25:4
49,26:5
49,27:4
49,28:2
49,29:5
49,30:1
49,31:5
49,32:5
49,33:4
49,34:4
49,35:6
49,36:6
49,37:3
49,38:3
49,39:1
49,41:7
49,42:1
49,43:1
49,44:7
49,45:1
49,58:3
49,59:3
49,60:4
49,61:3
49,62:4
49,63:3
49,64:6
49,67:1
50,1:2
50,2:2
50,3:2
50,4:2
50,6:2
50,8:2
50,9:4
50,10:4
50,14:4
50,15:4
50,16:1
50,17:1
50,18:1
50,19:1
50,20:1
50,21:1
50,22:1
50,23:1
50,24:1
50,25:4
50,26:5
50,27:4
50,28:2
50,29:5
50,30:1
50,31:5
50,32:5
50,33:4
50,34:4
50,35:6
50,36:6
50,37:3
50,38:3
50,39:1
50,41:7
50,42:1
50,43:1
50,44:7
50,45:1
50,58:3
50,59:3
50,60:4
50,61:3
50,62:4
50,63:3
50,64:6
50,67:1
54,1:2
54,2:2
54,3:2
54,4:2
54,6:2
54,8:2
54,9:4
54,10:4
54,14:4
54,15:4
54,16:1
54,17:1
54,18:1
54,19:1
54,20:1
54,21:1
54,22:1
54,23:1
54,24:1
54,25:4
54,26:5
54,27:4
54,28:2
54,29:5
54,30:1
54,31:5
54,32:5
54,33:4
54,34:4
54,35:6
54,36:6
54,37:3
54,38:3
54,39:1
54,41:7
54,42:1
54,43:1
54,44:7
54,45:1
54,51:7
54,52:7
54,53:7
54,68:6
54,69:6
54,70:6
54,71:6
54,72:6
54,80:6
55,1:2
55,2:2
55,3:2
55,4:2
55,6:2
55,8:2
55,9:4
55,10:4
55,14:4
55,15:4
55,16:1
55,17:1
55,18:1
55,19:1
55,20:1
55,21:1
55,22:1
55,23:1
55,24:1
55,25:4
55,26:5
55,27:4
55,28:2
55,29:5
55,30:1
55,31:5
55,32:5
55,33:4
55,34:4
55,35:6
55,36:6
55,37:3
55,38:3
55,39:1
55,41:7
55,42:1
55,43:1
55,44:7
55,45:1
55,51:7
55,52:7
55,53:7
55,68:6
55,69:6
55,70:6
55,71:6
55,72:6
55,80:6
56,1:2
56,2:2
56,3:2
56,4:2
56,6:2
56,8:2
56,9:4
56,10:4
56,14:4
56,15:4
56,16:1
56,17:1
56,18:1
56,19:1
56,20:1
56,21:1
56,22:1
56,23:1
56,24:1
56,25:4
56,26:5
56,27:4
56,28:2
56,29:5
56,30:1
56,31:5
56,32:5
56,33:4
56,34:4
56,35:6
56,36:6
56,37:3
56,38:3
56,39:1
56,41:7
56,42:1
56,43:1
56,44:7
56,45:1
56,51:7
56,52:7
56,53:7
56,68:6
56,69:6
56,70:6
56,71:6
56,72:6
56,80:6
57,1:2
57,2:2
57,3:2
57,4:2
57,6:2
57,8:2
57,9:4
57,10:4
57,14:4
57,15:4
57,16:1
57,17:1
57,18:1
57,19:1
57,20:1
57,21:1
57,22:1
57,23:1
57,24:1
57,25:4
57,26:5
57,27:4
57,28:2
57,29:5
57,30:1
57,31:5
57,32:5
57,33:4
57,34:4
57,35:6
57,36:6
57,37:3
57,38:3
57,39:1
57,41:7
57,42:1
57,43:1
57,44:7
57,45:1
57,51:7
57,52:7
57,53:7
57,68:6
57,69:6
57,70:6
57,71:6
57,72:6
57,80:6
58,9:1
58,10:1
58,14:1
58,15:1
58,25:1
58,26:2
58,27:1
58,29:2
58,31:2
58,32:2
58,33:1
58,34:1
58,35:3
58,36:3
58,41:4
58,44:4
58,51:4
58,52:4
58,53:4
58,60:1
58,62:1
58,64:3
58,68:3
58,69:3
58,70:3
58,71:3
58,72:3
58,80:3
59,9:1
59,10:1
59,14:1
59,15:1
59,25:1
59,26:2
59,27:1
59,29:2
59,31:2
59,32:2
59,33:1
59,34:1
59,35:3
59,36:3
59,41:4
59,44:4
59,51:4
59,52:4
59,53:4
59,60:1
59,62:1
59,64:3
59,68:3
59,69:3
59,70:3
59,71:3
59,72:3
59,80:3
60,26:1
60,29:1
60,31:1
60,32:1
60,35:2
60,36:2
60,41:3
60,44:3
60,51:3
60,52:3
60,53:3
60,64:2
60,68:2
60,69:2
60,70:2
60,71:2
60,72:2
60,80:2
61,9:1
61,10:1
61,14:1
61,15:1
61,25:1
61,26:2
61,27:1
61,29:2
61,31:2
61,32:2
61,33:1
61,34:1
61,35:3
61,36:3
61,41:4
61,44:4
61,51:4
61,52:4
61,53:4
61,60:1
61,62:1
61,64:3
61,68:3
61,69:3
61,70:3
61,71:3
61,72:3
61,80:3
62,26:1
62,29:1
62,31:1
62,32:1
62,35:2
62,36:2
62,41:3
62,44:3
62,51:3
62,52:3
62,53:3
62,64:2
62,68:2
62,69:2
62,70:2
62,71:2
62,72:2
62,80:2
63,9:1
63,10:1
63,14:1
63,15:1
63,25:1
63,26:2
63,27:1
63,29:2
63,31:2
63,32:2
63,33:1
63,34:1
63,35:3
63,36:3
63,41:4
63,44:4
63,51:4
63,52:4
63,53:4
63,60:1
63,62:1
63,64:3
63,68:3
63,69:3
63,70:3
63,71:3
63,72:3
63,80:3
64,41:1
64,44:1
64,51:1
64,52:1
64,53:1
65,1:2
65,2:2
65,3:2
65,4:2
65,6:2
65,8:2
65,9:4
65,10:4
65,14:4
65,15:4
65,16:1
65,17:1
65,18:1
65,19:1
65,20:1
65,21:1
65,22:1
65,23:1
65,24:1
65,25:4
65,26:5
65,27:4
65,28:2
65,29:5
65,30:1
65,31:5
65,32:5
65,33:4
65,34:4
65,35:6
65,36:6
65,37:3
65,38:3
65,39:1
65,41:7
65,42:1
65,43:1
65,44:7
65,45:1
65,51:7
65,52:7
65,53:7
65,58:3
65,59:3
65,60:4
65,61:3
65,62:4
65,63:3
65,64:6
65,68:6
65,69:6
65,70:6
65,71:6
65,72:6
65,80:6
66,1:2
66,2:2
66,3:2
66,4:2
66,6:2
66,8:2
66,9:4
66,10:4
66,14:4
66,15:4
66,16:1
66,17:1
66,18:1
66,19:1
66,20:1
66,21:1
66,22:1
66,23:1
66,24:1
66,25:4
66,26:5
66,27:4
66,28:2
66,29:5
66,30:1
66,31:5
66,32:5
66,33:4
66,34:4
66,35:6
66,36:6
66,37:3
66,38:3
66,39:1
66,41:7
66,42:1
66,43:1
66,44:7
66,45:1
66,51:7
66,52:7
66,53:7
66,58:3
66,59:3
66,60:4
66,61:3
66,62:4
66,63:3
66,64:6
66,68:6
66,69:6
66,70:6
66,71:6
66,72:6
66,80:6
67,1:1
67,2:1
67,3:1
67,4:1
67,6:1
67,8:1
67,9:3
67,10:3
67,14:3
67,15:3
67,25:3
67,26:4
67,27:3
67,28:1
67,29:4
67,31:4
67,32:4
67,33:3
67,34:3
67,35:5
67,36:5
67,37:2
67,38:2
67,41:6
67,44:6
67,51:6
67,52:6
67,53:6
67,58:2
67,59:2
67,60:3
67,61:2
67,62:3
67,63:2
67,64:5
67,68:5
67,69:5
67,70:5
67,71:5
67,72:5
67,80:5
68,41:1
68,44:1
68,51:1
68,52:1
68,53:1
69,41:1
69,44:1
69,51:1
69,52:1
69,53:1
70,41:1
70,44:1
70,51:1
70,52:1
70,53:1
71,41:1
71,44:1
71,51:1
71,52:1
71,53:1
72,41:1
72,44:1
72,51:1
72,52:1
72,53:1
73,1:3
73,2:3
73,3:3
73,4:3
73,6:3
73,8:3
73,9:5
73,10:5
73,14:5
73,15:5
73,16:2
73,17:2
73,18:2
73,19:2
73,20:2
73,21:2
73,22:2
73,23:2
73,24:2
73,25:5
73,26:6
73,27:5
73,28:3
73,29:6
73,30:2
73,31:6
73,32:6
73,33:5
73,34:5
73,35:7
73,36:7
73,37:4
73,38:4
73,39:2
73,40:1
73,41:8
73,42:2
73,43:2
73,44:8
73,45:2
73,46:1
73,47:1
73,48:1
73,49:1
73,50:1
73,51:8
73,52:8
73,53:8
73,54:1
73,55:1
73,56:1
73,57:1
73,58:4
73,59:4
73,60:5
73,61:4
73,62:5
73,63:4
73,64:7
73,65:1
73,66:1
73,67:2
73,68:7
73,69:7
73,70:7
73,71:7
73,72:7
73,80:7
74,1:3
74,2:3
74,3:3
74,4:3
74,6:3
74,8:3
74,9:5
74,10:5
74,14:5
74,15:5
74,16:2
74,17:2
74,18:2
74,19:2
74,20:2
74,21:2
74,22:2
74,23:2
74,24:2
74,25:5
74,26:6
74,27:5
74,28:3
74,29:6
74,30:2
74,31:6
74,32:6
74,33:5
74,34:5
74,35:7
74,36:7
74,37:4
74,38:4
74,39:2
74,40:1
74,41:8
74,42:2
74,43:2
74,44:8
74,45:2
74,46:1
74,47:1
74,48:1
74,49:1
74,50:1
74,51:8
74,52:8
74,53:8
74,54:1
74,55:1
74,56:1
74,57:1
74,58:4
74,59:4
74,60:5
74,61:4
74,62:5
74,63:4
74,64:7
74,65:1
74,66:1
74,67:2
74,68:7
74,69:7
74,70:7
74,71:7
74,72:7
74,80:7
75,1:3
75,2:3
75,3:3
75,4:3
75,6:3
75,8:3
75,9:5
75,10:5
75,14:5
75,15:5
75,16:2
75,17:2
75,18:2
75,19:2
75,20:2
75,21:2
75,22:2
75,23:2
75,24:2
75,25:5
75,26:6
75,27:5
75,28:3
75,29:6
75,30:2
75,31:6
75,32:6
75,33:5
75,34:5
75,35:7
75,36:7
75,37:4
75,38:4
75,39:2
75,40:1
75,41:8
75,42:2
75,43:2
75,44:8
75,45:2
75,46:1
75,47:1
75,48:1
75,49:1
75,50:1
75,51:8
75,52:8
75,53:8
75,54:1
75,55:1
75,56:1
75,57:1
75,58:4
75,59:4
75,60:5
75,61:4
75,62:5
75,63:4
75,64:7
75,65:1
75,66:1
75,67:2
75,68:7
75,69:7
75,70:7
75,71:7
75,72:7
75,76:4
75,80:7
76,9:1
76,10:1
76,14:1
76,15:1
76,25:1
76,26:2
76,27:1
76,29:2
76,31:2
76,32:2
76,33:1
76,34:1
76,35:3
76,36:3
76,41:4
76,44:4
76,51:4
76,52:4
76,53:4
76,60:1
76,62:1
76,64:3
76,68:3
76,69:3
76,70:3
76,71:3
76,72:3
76,80:3
77,1:3
77,2:3
77,3:3
77,4:3
77,6:3
77,8:3
77,9:5
77,10:5
77,14:5
77,15:5
77,16:2
77,17:2
77,18:2
77,19:2
77,20:2
77,21:2
77,22:2
77,23:2
77,24:2
77,25:5
77,26:6
77,27:5
77,28:3
77,29:6
77,30:2
77,31:6
77,32:6
77,33:5
77,34:5
77,35:7
77,36:7
77,37:4
77,38:4
77,39:2
77,40:1
77,41:8
77,42:2
77,43:2
77,44:8
77,45:2
77,46:1
77,47:1
77,48:1
77,49:1
77,50:1
77,51:8
77,52:8
77,53:8
77,54:1
77,55:1
77,56:1
77,57:1
77,58:4
77,59:4
77,60:5
77,61:4
77,62:5
77,63:4
77,64:7
77,65:1
77,66:1
77,67:2
77,68:7
77,69:7
77,70:7
77,71:7
77,72:7
77,76:4
77,80:7
78,9:1
78,10:1
78,14:1
78,15:1
78,25:1
78,26:2
78,27:1
78,29:2
78,31:2
78,32:2
78,33:1
78,34:1
78,35:3
78,36:3
78,41:4
78,44:4
78,51:4
78,52:4
78,53:4
78,60:1
78,62:1
78,64:3
78,68:3
78,69:3
78,70:3
78,71:3
78,72:3
78,80:3
79,9:1
79,10:1
79,14:1
79,15:1
79,25:1
79,26:2
79,27:1
79,29:2
79,31:2
79,32:2
79,33:1
79,34:1
79,35:3
79,36:3
79,41:4
79,44:4
79,51:4
79,52:4
79,53:4
79,60:1
79,62:1
79,64:3
79,68:3
79,69:3
79,70:3
79,71:3
79,72:3
79,80:3
80,41:1
80,44:1
80,51:1
80,52:1
80,53:1
81,9:1
81,10:1
81,14:1
81,15:1
81,25:1
81,26:2
81,27:1
81,29:2
81,31:2
81,32:2
81,33:1
81,34:1
81,35:3
81,36:3
81,41:4
81,44:4
81,51:4
81,52:4
81,53:4
81,60:1
81,62:1
81,64:3
81,68:3
81,69:3
81,70:3
81,71:3
81,72:3
81,80:3
82,9:1
82,10:1
82,14:1
82,15:1
82,25:1
82,26:2
82,27:1
82,29:2
82,31:2
82,32:2
82,33:1
82,34:1
82,35:3
82,36:3
82,41:4
82,44:4
82,51:4
82,52:4
82,53:4
82,60:1
82,62:1
82,64:3
82,68:3
82,69:3
82,70:3
82,71:3
82,72:3
82,80:3
83,1:1
83,2:1
83,3:1
83,4:1
83,6:1
83,8:1
83,9:3
83,10:3
83,14:3
83,15:3
83,25:3
83,26:4
83,27:3
83,28:1
83,29:4
83,31:4
83,32:4
83,33:3
83,34:3
83,35:5
83,36:5
83,37:2
83,38:2
83,41:6
83,44:6
83,51:6
83,52:6
83,53:6
83,58:2
83,59:2
83,60:3
83,61:2
83,62:3
83,63:2
83,64:5
83,68:5
83,69:5
83,70:5
83,71:5
83,72:5
83,76:2
83,78:2
83,79:2
83,80:5
83,81:2
83,82:2
84,1:1
84,2:1
84,3:1
84,4:1
84,6:1
84,8:1
84,9:3
84,10:3
84,14:3
84,15:3
84,25:3
84,26:4
84,27:3
84,28:1
84,29:4
84,31:4
84,32:4
84,33:3
84,34:3
84,35:5
84,36:5
84,37:2
84,38:2
84,41:6
84,44:6
84,51:6
84,52:6
84,53:6
84,58:2
84,59:2
84,60:3
84,61:2
84,62:3
84,63:2
84,64:5
84,68:5
84,69:5
84,70:5
84,71:5
84,72:5
84,76:2
84,78:2
84,79:2
84,80:5
84,81:2
84,82:2
85,1:1
85,2:1
85,3:1
85,4:1
85,6:1
85,8:1
85,9:3
85,10:3
85,14:3
85,15:3
85,25:3
85,26:4
85,27:3
85,28:1
85,29:4
85,31:4
85,32:4
85,33:3
85,34:3
85,35:5
85,36:5
85,37:2
85,38:2
85,41:6
85,44:6
85,51:6
85,52:6
85,53:6
85,58:2
85,59:2
85,60:3
85,61:2
85,62:3
85,63:2
85,64:5
85,68:5
85,69:5
85,70:5
85,71:5
85,72:5
85,76:2
85,78:2
85,79:2
85,80:5
85,81:2
85,82:2
86,1:1
86,2:1
86,3:1
86,4:1
86,6:1
86,8:1
86,9:3
86,10:3
86,14:3
86,15:3
86,25:3
86,26:4
86,27:3
86,28:1
86,29:4
86,31:4
86,32:4
86,33:3
86,34:3
86,35:5
86,36:5
86,37:2
86,38:2
86,41:6
86,44:6
86,51:6
86,52:6
86,53:6
86,58:2
86,59:2
86,60:3
86,61:2
86,62:3
86,63:2
86,64:5
86,68:5
86,69:5
86,70:5
86,71:5
86,72:5
86,76:2
86,78:2
86,79:2
86,80:5
86,81:2
86,82:2
87,1:2
87,2:2
87,3:2
87,4:2
87,6:2
87,8:2
87,9:4
87,10:4
87,14:4
87,15:4
87,16:1
87,17:1
87,18:1
87,19:1
87,20:1
87,21:1
87,22:1
87,23:1
87,24:1
87,25:4
87,26:5
87,27:4
87,28:2
87,29:5
87,30:1
87,31:5
87,32:5
87,33:4
87,34:4
87,35:6
87,36:6
87,37:3
87,38:3
87,39:1
87,41:7
87,42:1
87,43:1
87,44:7
87,45:1
87,51:7
87,52:7
87,53:7
87,58:3
87,59:3
87,60:4
87,61:3
87,62:4
87,63:3
87,64:6
87,67:1
87,68:6
87,69:6
87,70:6
87,71:6
87,72:6
87,76:3
87,78:3
87,79:3
87,80:6
87,81:3
87,82:3
87,83:1
87,84:1
87,85:1
87,86:1
88,1:2
88,2:2
88,3:2
88,4:2
88,6:2
88,8:2
88,9:4
88,10:4
88,14:4
88,15:4
88,16:1
88,17:1
88,18:1
88,19:1
88,20:1
88,21:1
88,22:1
88,23:1
88,24:1
88,25:4
88,26:5
88,27:4
88,28:2
88,29:5
88,30:1
88,31:5
88,32:5
88,33:4
88,34:4
88,35:6
88,36:6
88,37:3
88,38:3
88,39:1
88,41:7
88,42:1
88,43:1
88,44:7
88,45:1
88,51:7
88,52:7
88,53:7
88,58:3
88,59:3
88,60:4
88,61:3
88,62:4
88,63:3
88,64:6
88,67:1
88,68:6
88,69:6
88,70:6
88,71:6
88,72:6
88,76:3
88,78:3
88,79:3
88,80:6
88,81:3
88,82:3
88,83:1
88,84:1
88,85:1
88,86:1
89,1:2
89,2:2
89,3:2
89,4:2
89,6:2
89,8:2
89,9:4
89,10:4
89,14:4
89,15:4
89,16:1
89,17:1
89,18:1
89,19:1
89,20:1
89,21:1
89,22:1
89,23:1
89,24:1
89,25:4
89,26:5
89,27:4
89,28:2
89,29:5
89,30:1
89,31:5
89,32:5
89,33:4
89,34:4
89,35:6
89,36:6
89,37:3
89,38:3
89,39:1
89,41:7
89,42:1
89,43:1
89,44:7
89,45:1
89,51:7
89,52:7
89,53:7
89,58:3
89,59:3
89,60:4
89,61:3
89,62:4
89,63:3
89,64:6
89,67:1
89,68:6
89,69:6
89,70:6
89,71:6
89,72:6
89,76:3
89,78:3
89,79:3
89,80:6
89,81:3
89,82:3
89,83:1
89,84:1
89,85:1
89,86:1

<end>

<optimal SALBP-1 value>
20


<rand seed>
467321153

